p cnf 25 62
a 17 5 0
e 1 2 3 4 6 7 8 9 10 11 12 13 14 15 16 18 19 20 21 22 23 24 25 0
-3 1 0
-3 2 0
-1 -2 3 0
7 1 0
7 6 0
-1 -6 -7 0
-7 -5 -8 0
7 5 -8 0
-7 5 8 0
7 -5 8 0
9 5 0
9 8 0
-5 -8 -9 0
-10 4 0
-10 9 0
-4 -9 10 0
-10 -11 -12 0
10 11 -12 0
-10 11 12 0
10 -11 12 0
-13 -3 0
-13 -12 0
3 12 13 0
-11 14 0
11 14 0
-15 2 0
-15 -6 0
-2 6 15 0
-16 5 0
-16 15 0
-5 -15 16 0
-17 -6 -18 0
17 6 -18 0
-17 6 18 0
17 -6 18 0
-19 18 0
-19 -7 0
-18 7 19 0
20 16 0
20 -19 0
-16 19 -20 0
21 14 0
21 20 0
-14 -20 -21 0
23 22 0
23 -6 0
-22 6 -23 0
21 23 -24 0
-21 -23 -24 0
21 -23 24 0
-21 23 24 0
-13 -24 -25 0
13 24 -25 0
-13 24 25 0
13 -24 25 0
-12 1 -15 20 0
-7 -8 1 -10 6 0
-22 23 -2 -20 5 17 0
-10 3 -9 -19 -23 0
23 16 -7 -5 -24 -11 0
21 25 2 18 0
25 0
